# Objective value = 2
X[0] 0
X[1] 0
X[2] 0
X[3] 0
X[4] 0
X[5] 0
X[6] 0
X[7] 0
X[8] 0
X[9] 0
X[10] 0
X[11] 0
X[12] 0
X[13] 0
X[14] 0
X[15] 0
X[16] 0
X[17] 0
X[18] 0
X[19] 0
X[20] 0
X[21] 0
X[22] 0
X[23] 0
X[24] 0
X[25] 0
X[26] 0
X[27] 0
X[28] 0
X[29] 0
X[30] 0
X[31] 0
X[32] 0
X[33] 0
X[34] 0
X[35] 0
X[36] 0
X[37] 0
X[38] 0
X[39] 0
X[40] 0
X[41] 0
X[42] 0
X[43] 0
X[44] 0
X[45] 0
X[46] 0
X[47] 0
X[48] 0
X[49] 0
X[50] 0
X[51] 0
X[52] 1
X[53] 0
X[54] 0
X[55] 0
X[56] 0
X[57] 0
X[58] 0
X[59] 0
X[60] 0
X[61] 0
X[62] 0
X[63] 0
X[64] 0
X[65] 0
X[66] 0
X[67] 0
X[68] 0
X[69] 0
X[70] 0
X[71] 0
X[72] 0
X[73] 0
X[74] 0
X[75] 0
X[76] 0
X[77] 0
X[78] 0
X[79] 0
X[80] 0
X[81] 0
X[82] 0
X[83] 0
X[84] 0
X[85] 0
X[86] 0
X[87] 0
X[88] 0
X[89] 0
X[90] 0
X[91] 0
X[92] 0
X[93] 0
X[94] 0
X[95] 0
X[96] 0
X[97] 0
X[98] 0
X[99] 0
X[100] 0
X[101] 0
X[102] 0
X[103] 0
X[104] 0
X[105] 0
X[106] 0
X[107] 0
X[108] 0
X[109] 0
X[110] 0
X[111] 0
X[112] 0
X[113] 0
X[114] 0
X[115] 0
X[116] 0
X[117] 0
X[118] 0
X[119] 0
X[120] 0
X[121] 0
X[122] 0
X[123] 0
X[124] 0
X[125] 0
X[126] 0
X[127] 0
X[128] 0
X[129] 0
X[130] 0
X[131] 0
X[132] 0
X[133] 0
X[134] 0
X[135] 0
X[136] 0
X[137] 0
X[138] 0
X[139] 0
X[140] 0
X[141] 0
X[142] 0
X[143] 0
X[144] 0
X[145] 0
X[146] 0
X[147] 0
X[148] 0
X[149] 0
X[150] 0
X[151] 0
X[152] 0
X[153] 0
X[154] 0
X[155] 0
X[156] 0
X[157] 0
X[158] 0
X[159] 0
X[160] 0
X[161] 0
X[162] 0
X[163] 0
X[164] 0
X[165] 0
X[166] 0
X[167] 0
X[168] 0
X[169] 0
X[170] 0
X[171] 0
X[172] 0
X[173] 0
X[174] 0
X[175] 0
X[176] 0
X[177] 0
X[178] 0
X[179] 0
X[180] 0
X[181] 0
X[182] 0
X[183] 0
X[184] 0
X[185] 0
X[186] 0
X[187] 0
X[188] 0
X[189] 0
X[190] 0
X[191] 0
X[192] 0
X[193] 0
X[194] 0
X[195] 0
X[196] 0
X[197] 0
X[198] 0
X[199] 0
X[200] 0
X[201] 0
X[202] 0
X[203] 0
X[204] 0
X[205] 0
X[206] 0
X[207] 0
X[208] 0
X[209] 0
X[210] 0
X[211] 0
X[212] 0
X[213] 0
X[214] 0
X[215] 0
X[216] 0
X[217] 0
X[218] 0
X[219] 0
X[220] 0
X[221] 0
X[222] 0
X[223] 0
X[224] 0
X[225] 0
X[226] 0
X[227] 0
X[228] 0
X[229] 0
X[230] 0
X[231] 0
X[232] 0
X[233] 0
X[234] 0
X[235] 0
X[236] 0
X[237] 0
X[238] 0
X[239] 0
X[240] 0
X[241] 0
X[242] 0
X[243] 0
X[244] 0
X[245] 0
X[246] 0
X[247] 0
X[248] 0
X[249] 0
X[250] 0
X[251] 0
X[252] 0
X[253] 0
X[254] 0
X[255] 0
X[256] 0
X[257] 0
X[258] 0
X[259] 0
X[260] 0
X[261] 0
X[262] 0
X[263] 0
X[264] 0
X[265] 1
X[266] 0
X[267] 0
X[268] 0
X[269] 0
X[270] 0
X[271] 0
X[272] 0
X[273] 0
X[274] 0
X[275] 0
X[276] 0
X[277] 0
X[278] 0
X[279] 0
X[280] 0
X[281] 0
X[282] 0
X[283] 0
X[284] 0
X[285] 0
X[286] 0
X[287] 0
X[288] 0
X[289] 0
X[290] 0
X[291] 0
X[292] 0
X[293] 0
X[294] 0
X[295] 0
X[296] 0
X[297] 0
X[298] 0
X[299] 0
X[300] 0
X[301] 0
X[302] 0
X[303] 0
X[304] 0
X[305] 0
X[306] 0
X[307] 0
X[308] 0
X[309] 0
X[310] 0
X[311] 0
X[312] 0
X[313] 0
X[314] 0
X[315] 0
X[316] 0
X[317] 0
